proyfinal/src/viki/013/experimentInOfficeAgust.take6.output/bd77018a-4409-4559-bcea-b9c276315b4d.als.out
Reading from standard input... Use '--help' for help.
============================[ Problem Statistics ]=============================
|                                                                             |
|  Number of variables:         87638                                         |
|  Number of clauses:          161767                                         |
|  Parse time:                   0.04 s                                       |
|                                                                             |
============================[ Search Statistics ]==============================
| Conflicts |          ORIGINAL         |          LEARNT          | Progress |
|           |    Vars  Clauses Literals |    Limit  Clauses Lit/Cl |          |
===============================================================================
|       100 |   62450   105651   263457 |    38738      100     60 | 28.741 % |
|       250 |   62422   105539   263190 |    42612      248     58 | 28.773 % |
|       475 |   62422   105539   263190 |    46873      473     67 | 28.773 % |
|       812 |   62406   105473   263037 |    51561      809     73 | 28.791 % |
|      1318 |   62406   105473   263037 |    56717     1315     81 | 28.791 % |
|      2077 |   62312   105389   262844 |    62389     2070     76 | 28.898 % |
|      3216 |   62312   105085   262137 |    68627     3209     81 | 28.898 % |
|      4924 |   62155   104532   260853 |    75490     4357     77 | 29.078 % |
|      7486 |   62091   104310   260343 |    83039     6914     87 | 29.151 % |
|     11330 |   62091   104120   259889 |    91343    10757     87 | 29.151 % |
|     17096 |   54741    81829   205032 |   100478    16462     86 | 37.537 % |
===============================================================================
restarts              : 70
conflicts             : 20341          (7517 /sec)
decisions             : 63706          (0.00 % random) (23542 /sec)
propagations          : 26521721       (9800982 /sec)
conflict literals     : 1680831        (47.23 % deleted)
Memory used           : 46.99 MB
CPU time              : 2.70603 s

UNSATISFIABLE
